1322.03,42.83,51.34
1275.38,44.4,53.21
1444.09,39.21,47.0
1301.67,43.5,52.14
1267.74,44.67,53.53
1187.97,47.67,57.13
1142.47,49.56,59.4
1133.43,49.96,59.88
1238.7,45.71,54.79
1323.13,42.8,51.29
1371.79,41.28,49.47
1296.0,43.69,52.37
1236.63,45.79,54.88
1258.93,44.98,53.91
1302.95,43.46,52.09
1284.63,44.08,52.83
1251.58,45.24,54.22
1398.81,40.48,48.52
1364.63,41.5,49.73
1400.92,40.42,48.44
